
Log started (V20.1.0.0) Thu Apr 28 01:07:08 2022


Problem 'file.lp' read.
Read time = 0.00 sec. (0.00 ticks)
Version identifier: 20.1.0.0 | 2020-11-10 | 9bedb6d68
Tried aggregator 1 time.
LP Presolve eliminated 0 rows and 2 columns.
Reduced LP has 4 rows, 2 columns, and 8 nonzeros.
Presolve time = 0.02 sec. (0.00 ticks)

Iteration log . . .
Iteration:     1   Dual objective     =             9.600000

Dual simplex - Optimal:  Objective =  1.0400000000e+01
Solution time =    0.03 sec.  Iterations = 2 (0)
Deterministic time = 0.01 ticks  (0.30 ticks/sec)


Variable Name           Solution Value
quantAlimento#1               7.000000
quantAlimento#2               2.000000
All other variables matching '*' are 0.
